62	0

0	3	2	3	4
7	8	10	11	12	13	14	15	18	24
8	6	10	11	13	14	15	24
2	3	5	6	8
1	7	7	9	11	12	13	15	18
1	7	7	9	11	12	13	15	18
10	7	16	17	19	20	22	23	26
5	8	10	11	12	13	14	15	18	24
9	3	10	14	24
6	1	25
5	7	16	17	19	20	22	23	26
8	4	25	27	30	39
5	7	16	17	19	20	22	23	26
1	7	16	17	19	20	22	23	26
6	2	21	27
1	2	21	27
3	3	25	30	39
10	3	25	30	39
7	6	28	29	32	33	34	35
6	8	28	29	31	32	33	34	35	36
3	3	25	30	39
8	4	32	33	34	35
5	1	25
7	8	28	29	31	32	33	34	35	36
1	8	28	29	31	32	33	34	35	36
8	4	32	33	34	35
5	6	28	29	32	33	34	35
9	1	41
7	3	40	51	52
10	3	40	51	52
6	2	37	38
3	2	37	38
10	8	44	45	46	47	48	49	50	53
4	2	37	38
7	3	41	42	43
4	2	37	38
1	3	40	51	52
7	8	44	45	46	47	48	49	50	53
10	3	40	51	52
1	3	41	42	43
3	8	44	45	46	47	48	49	50	53
4	8	44	45	46	47	48	49	50	53
4	8	44	45	46	47	48	49	50	53
3	2	54	59
7	3	56	57	59
3	2	54	59
8	2	56	57
2	2	54	55
10	2	58	60
3	2	54	59
10	3	56	57	59
6	2	54	55
5	3	56	57	59
5	2	56	57
5	3	56	57	59
1	2	58	60
1	2	58	60
3	1	61
5	2	60	61
10	1	62
6	1	62
0	0
